
durations = [294,334,406,421,384,374,348,182,222,212,278,362,290,124,184,420,323,203,339,258,393,390,309,256,394,125,406,459,356,381,231,520,197,290,416,278,159,332,372,393,257,263,309,209,269,151,284,343,144,207,241,254,219,257,185,199,251,148];

k = 10;

